NAME
ROWS
 N    obj
 E           19WBGIBEGIN_EDGE
 E           19WMEMBEGIN_EDGE
 E           19WCLTEND_EDGE
 E           FlowIn19WCLT07052013SAT090016JUL2021
 E           FlowIn19WCLT07161376EWR091116JUL2021
 E           FlowIn19WCLT22140606STL231115JUL2021
 E           FlowIn19WCLT22291976SYR002015JUL2021
 E           FlowIn19WCLT22301962PIT235415JUL2021
 E           FlowOut19WBGI15490612CLT204915JUL2021
 E           FlowOut19WMEM18012552CLT205415JUL2021
 E           FlowOut19WPIT06550312CLT083116JUL2021
 E           FlowOut19WCLT22301962PIT235415JUL2021
 E           FlowOut19WRIC19421260CLT211015JUL2021
 E           FlowOut19WSTL05300858CLT082616JUL2021
 E           FlowOut19WSYR06220530CLT082616JUL2021
 E           FlowOut19WUVF15270823CLT201415JUL2021
COLUMNS
           z19WBGI15490612CLT204915JUL202119WCLT07052013SAT090016JUL2021           FlowIn19WCLT07052013SAT090016JUL2021           1.0
           z19WBGI15490612CLT204915JUL202119WCLT07052013SAT090016JUL2021           FlowOut19WBGI15490612CLT204915JUL2021           1.0
           z19WBGI15490612CLT204915JUL202119WCLT07052013SAT090016JUL2021           FAMTurnOptHUBS3SPOKESObj           -900600.94
           z19WBGI15490612CLT204915JUL202119WCLT07052013SAT090016JUL2021           FAMTurnOptHUBS1Obj           -379456.0
           z19WBGI15490612CLT204915JUL202119WCLT07161376EWR091116JUL2021           FlowIn19WCLT07161376EWR091116JUL2021           1.0
           z19WBGI15490612CLT204915JUL202119WCLT07161376EWR091116JUL2021           FlowOut19WBGI15490612CLT204915JUL2021           1.0
           z19WBGI15490612CLT204915JUL202119WCLT07161376EWR091116JUL2021           19WCLT15JUL2021           1.0
           z19WBGI15490612CLT204915JUL202119WCLT07161376EWR091116JUL2021           FAMTurnOptHUBS1Obj           -393129.0
           z19WBGI15490612CLT204915JUL202119WCLT22140606STL231115JUL2021           FlowIn19WCLT22140606STL231115JUL2021           1.0
           z19WBGI15490612CLT204915JUL202119WCLT22140606STL231115JUL2021           FlowOut19WBGI15490612CLT204915JUL2021           1.0
           z19WBGI15490612CLT204915JUL202119WCLT22291976SYR002015JUL2021           FlowIn19WCLT22291976SYR002015JUL2021           1.0
           z19WBGI15490612CLT204915JUL202119WCLT22291976SYR002015JUL2021           FlowOut19WBGI15490612CLT204915JUL2021           1.0
           z19WBGI15490612CLT204915JUL202119WCLT22301962PIT235415JUL2021           FlowIn19WCLT22301962PIT235415JUL2021           1.0
           z19WBGI15490612CLT204915JUL202119WCLT22301962PIT235415JUL2021           FlowOut19WBGI15490612CLT204915JUL2021           1.0
           z19WCLT22140606STL231115JUL2021_ORIG           FlowIn19WCLT22140606STL231115JUL2021           1.0
           z19WCLT22140606STL231115JUL2021_ORIG           19WCLTBEGIN_EDGE           1.0
           z19WCLT22140606STL231115JUL2021_ORIG           FAMTurnOptHUBS1Obj           -1779556.0
           z19WCLT22291976SYR002015JUL2021_ORIG           FlowIn19WCLT22291976SYR002015JUL2021           1.0
           z19WCLT22291976SYR002015JUL2021_ORIG           19WCLTBEGIN_EDGE           1.0
           z19WCLT22291976SYR002015JUL2021_ORIG           FAMTurnOptHUBS1Obj           -1819801.0
           z19WCLT22301962PIT235415JUL2021_ORIG           FlowIn19WCLT22301962PIT235415JUL2021           1.0
           z19WCLT22301962PIT235415JUL2021_ORIG           19WCLTBEGIN_EDGE           1.0
           z19WCLT22301962PIT235415JUL2021_ORIG           FAMTurnOptHUBS1Obj           -1822500.0
           z19WMEM18012552CLT205415JUL202119WCLT07052013SAT090016JUL2021           FlowIn19WCLT07052013SAT090016JUL2021           1.0
           z19WMEM18012552CLT205415JUL202119WCLT07052013SAT090016JUL2021           FlowOut19WMEM18012552CLT205415JUL2021           1.0
           z19WMEM18012552CLT205415JUL202119WCLT07052013SAT090016JUL2021           19WCLT15JUL2021           1.0
           z19WMEM18012552CLT205415JUL202119WCLT07052013SAT090016JUL2021           FAMTurnOptHUBS1Obj           -373321.0
           z19WMEM18012552CLT205415JUL202119WCLT07161376EWR091116JUL2021           FlowIn19WCLT07161376EWR091116JUL2021           1.0
           z19WMEM18012552CLT205415JUL202119WCLT07161376EWR091116JUL2021           FlowOut19WMEM18012552CLT205415JUL2021           1.0
           z19WMEM18012552CLT205415JUL202119WCLT07161376EWR091116JUL2021           19WCLT15JUL2021           1.0
           z19WRIC19421260CLT211015JUL2021_ORIG           FAMTurnOptHUBS1Obj           -386884.0
           z19WMEM18012552CLT205415JUL202119WCLT22140606STL231115JUL2021           19WRICBEGIN_EDGE           1.0
           z19WMEM18012552CLT205415JUL202119WCLT22140606STL231115JUL2021           FlowOut19WMEM18012552CLT205415JUL2021           1.0
           z19WMEM18012552CLT205415JUL202119WCLT22291976SYR002015JUL2021           FlowIn19WCLT22291976SYR002015JUL2021           1.0
           z19WMEM18012552CLT205415JUL202119WCLT22291976SYR002015JUL2021           FlowOut19WMEM18012552CLT205415JUL2021           1.0
           z19WMEM18012552CLT205415JUL202119WCLT22301962PIT235415JUL2021           FlowIn19WCLT22301962PIT235415JUL2021           1.0
           z19WMEM18012552CLT205415JUL202119WCLT22301962PIT235415JUL2021           FlowOut19WMEM18012552CLT205415JUL2021           1.0
           z19WPIT06550312CLT083116JUL2021_TERM           FlowOut19WPIT06550312CLT083116JUL2021           1.0
           z19WPIT06550312CLT083116JUL2021_TERM           19WCLTEND_EDGE           1.0
           z19WPIT06550312CLT083116JUL2021_TERM           FAMTurnOptHUBS1Obj           -863040.94
           z19WRIC18012843CLT192715JUL202119WCLT07052013SAT090016JUL2021           FlowIn19WCLT07052013SAT090016JUL2021           1.0
           z19WRIC18012843CLT192715JUL202119WCLT07052013SAT090016JUL2021           FlowOut19WRIC18012843CLT192715JUL2021           1.0
           z19WRIC18012843CLT192715JUL202119WCLT07052013SAT090016JUL2021           19WCLT15JUL2021           1.0
           z19WRIC18012843CLT192715JUL202119WCLT07052013SAT090016JUL2021           FAMTurnOptHUBS1Obj           -487204.0
           z19WRIC18012843CLT192715JUL202119WCLT07161376EWR091116JUL2021           FlowIn19WCLT07161376EWR091116JUL2021           1.0
           z19WRIC18012843CLT192715JUL202119WCLT07161376EWR091116JUL2021           FlowOut19WRIC18012843CLT192715JUL2021           1.0
           z19WRIC18012843CLT192715JUL202119WCLT07161376EWR091116JUL2021           19WCLT15JUL2021           1.0
           z19WRIC18012843CLT192715JUL202119WCLT07161376EWR091116JUL2021           FAMTurnOptHUBS1Obj           -502681.0
           z19WRIC18012843CLT192715JUL202119WCLT22140606STL231115JUL2021           FlowIn19WCLT22140606STL231115JUL2021           1.0
           z19WRIC18012843CLT192715JUL202119WCLT22140606STL231115JUL2021           FlowOut19WRIC18012843CLT192715JUL2021           1.0
           z19WRIC18012843CLT192715JUL202119WCLT22291976SYR002015JUL2021           FlowIn19WCLT22291976SYR002015JUL2021           1.0
           z19WRIC18012843CLT192715JUL202119WCLT22291976SYR002015JUL2021           FlowOut19WRIC18012843CLT192715JUL2021           1.0
           z19WRIC18012843CLT192715JUL202119WCLT22301962PIT235415JUL2021           FlowIn19WCLT22301962PIT235415JUL2021           1.0
           z19WRIC18012843CLT192715JUL202119WCLT22301962PIT235415JUL2021           FlowOut19WRIC18012843CLT192715JUL2021           1.0
           z19WRIC19421260CLT211015JUL202119WCLT07052013SAT090016JUL2021           FlowIn19WCLT07052013SAT090016JUL2021           1.0
           z19WRIC19421260CLT211015JUL202119WCLT07052013SAT090016JUL2021           FlowOut19WRIC19421260CLT211015JUL2021           1.0
           z19WRIC19421260CLT211015JUL202119WCLT07052013SAT090016JUL2021           19WCLT15JUL2021           1.0
           z19WRIC19421260CLT211015JUL202119WCLT07052013SAT090016JUL2021           FAMTurnOptHUBS1Obj           -354025.0
           z19WRIC19421260CLT211015JUL202119WCLT07161376EWR091116JUL2021           FlowIn19WCLT07161376EWR091116JUL2021           1.0
           z19WRIC19421260CLT211015JUL202119WCLT07161376EWR091116JUL2021           FlowOut19WRIC19421260CLT211015JUL2021           1.0
           z19WRIC19421260CLT211015JUL202119WCLT07161376EWR091116JUL2021           19WCLT15JUL2021           1.0
           z19WRIC19421260CLT211015JUL202119WCLT07161376EWR091116JUL2021           FAMTurnOptHUBS1Obj           -367236.0
           z19WRIC19421260CLT211015JUL202119WCLT22140606STL231115JUL2021           FlowIn19WCLT22140606STL231115JUL2021           1.0
           z19WRIC19421260CLT211015JUL202119WCLT22140606STL231115JUL2021           FlowOut19WRIC19421260CLT211015JUL2021           1.0
           z19WRIC19421260CLT211015JUL202119WCLT22291976SYR002015JUL2021           FlowIn19WCLT22291976SYR002015JUL2021           1.0
           z19WRIC19421260CLT211015JUL202119WCLT22291976SYR002015JUL2021           FlowOut19WRIC19421260CLT211015JUL2021           1.0
           z19WRIC19421260CLT211015JUL202119WCLT22301962PIT235415JUL2021           FlowIn19WCLT22301962PIT235415JUL2021           1.0
           z19WRIC19421260CLT211015JUL202119WCLT22301962PIT235415JUL2021           FlowOut19WRIC19421260CLT211015JUL2021           1.0
           z19WSTL05300858CLT082616JUL2021_TERM           FlowOut19WSTL05300858CLT082616JUL2021           1.0
           z19WSTL05300858CLT082616JUL2021_TERM           19WCLTEND_EDGE           1.0
           z19WSTL05300858CLT082616JUL2021_TERM           FAMTurnOptHUBS1Obj           -872356.0
           z19WSYR06220530CLT082616JUL2021_TERM           FlowOut19WSYR06220530CLT082616JUL2021           1.0
           z19WSYR06220530CLT082616JUL2021_TERM           19WCLTEND_EDGE           1.0
           z19WSYR06220530CLT082616JUL2021_TERM           FAMTurnOptHUBS1Obj           -872356.0
           z19WUVF15270823CLT201415JUL202119WCLT07052013SAT090016JUL2021           FlowIn19WCLT07052013SAT090016JUL2021           1.0
           z19WUVF15270823CLT201415JUL202119WCLT07052013SAT090016JUL2021           FlowOut19WUVF15270823CLT201415JUL2021           1.0
           z19WUVF15270823CLT201415JUL202119WCLT07052013SAT090016JUL2021           19WCLT15JUL2021           1.0
           z19WUVF15270823CLT201415JUL202119WCLT07052013SAT090016JUL2021           FAMTurnOptHUBS1Obj           -423801.0
           z19WUVF15270823CLT201415JUL202119WCLT07161376EWR091116JUL2021           FlowIn19WCLT07161376EWR091116JUL2021           1.0
           z19WUVF15270823CLT201415JUL202119WCLT07161376EWR091116JUL2021           FlowOut19WUVF15270823CLT201415JUL2021           1.0
           z19WUVF15270823CLT201415JUL202119WCLT07161376EWR091116JUL2021           19WCLT15JUL2021           1.0
           z19WUVF15270823CLT201415JUL202119WCLT07161376EWR091116JUL2021           FAMTurnOptHUBS1Obj           -438244.0
           z19WUVF15270823CLT201415JUL202119WCLT22140606STL231115JUL2021           FlowIn19WCLT22140606STL231115JUL2021           1.0
           z19WUVF15270823CLT201415JUL202119WCLT22140606STL231115JUL2021           FlowOut19WUVF15270823CLT201415JUL2021           1.0
           z19WUVF15270823CLT201415JUL202119WCLT22291976SYR002015JUL2021           FlowIn19WCLT22291976SYR002015JUL2021           1.0
           z19WUVF15270823CLT201415JUL202119WCLT22291976SYR002015JUL2021           FlowOut19WUVF15270823CLT201415JUL2021           1.0
           z19WUVF15270823CLT201415JUL202119WCLT22301962PIT235415JUL2021           FlowIn19WCLT22301962PIT235415JUL2021           1.0
           z19WUVF15270823CLT201415JUL202119WCLT22301962PIT235415JUL2021           FlowOut19WUVF15270823CLT201415JUL2021           1.0
RHS
 VALRHS           19WBGIBEGIN_EDGE           1.0
 VALRHS           19WCLTEND_EDGE           3.0
 VALRHS           FlowIn19WCLT07052013SAT090016JUL2021           1.0
 VALRHS           FlowIn19WCLT07161376EWR091116JUL2021           1.0
 VALRHS           FlowIn19WCLT22140606STL231115JUL2021           1.0
 VALRHS           FlowIn19WCLT22291976SYR002015JUL2021           1.0
 VALRHS           FlowIn19WCLT22301962PIT235415JUL2021           1.0
 VALRHS           FlowOut19WBGI15490612CLT204915JUL2021           1.0
 VALRHS           FlowOut19WMEM18012552CLT205415JUL2021           1.0
 VALRHS           19WUVFBEGIN_EDGE           1.0
 VALRHS           FlowOut19WRIC18012843CLT192715JUL2021           1.0
 VALRHS           FlowOut19WRIC19421260CLT211015JUL2021           1.0
 VALRHS           FlowOut19WSTL05300858CLT082616JUL2021           1.0
 VALRHS           FlowOut19WSYR06220530CLT082616JUL2021           1.0
 VALRHS           FlowOut19WUVF15270823CLT201415JUL2021           1.0
RANGES
BOUNDS
 UP           BOUND           z19WBGI15490612CLT204915JUL2021_ORIG           1.0
 UP           BOUND           z19WCLT22291976SYR002015JUL202119WSYR06220530CLT082616JUL2021           3.4028235E38
 UP           BOUND           z19WBGI15490612CLT204915JUL202119WCLT22140606STL231115JUL2021           1.0
 UP           BOUND           z19WBGI15490612CLT204915JUL202119WCLT22291976SYR002015JUL2021           1.0
 UP           BOUND           z19WBGI15490612CLT204915JUL202119WCLT22301962PIT235415JUL2021           1.0
 UP           BOUND           z19WCLT22140606STL231115JUL2021_ORIG           1.0
 UP           BOUND           z19WCLT22291976SYR002015JUL2021_ORIG           1.0
 UP           BOUND           z19WCLT22301962PIT235415JUL2021_ORIG           1.0
 UP           BOUND           z19WMEM18012552CLT205415JUL202119WCLT07052013SAT090016JUL2021           1.0
 UP           BOUND           z19WMEM18012552CLT205415JUL202119WCLT07161376EWR091116JUL2021           1.0
 UP           BOUND           z19WMEM18012552CLT205415JUL202119WCLT22140606STL231115JUL2021           1.0
 UP           BOUND           z19WMEM18012552CLT205415JUL202119WCLT22291976SYR002015JUL2021           1.0
 UP           BOUND           z19WMEM18012552CLT205415JUL202119WCLT22301962PIT235415JUL2021           1.0
 UP           BOUND           z19WPIT06550312CLT083116JUL2021_TERM           1.0
 UP           BOUND           z19WRIC18012843CLT192715JUL202119WCLT07052013SAT090016JUL2021           1.0
 UP           BOUND           z19WRIC18012843CLT192715JUL202119WCLT07161376EWR091116JUL2021           1.0
 UP           BOUND           z19WRIC18012843CLT192715JUL202119WCLT22140606STL231115JUL2021           1.0
 UP           BOUND           z19WRIC18012843CLT192715JUL202119WCLT22291976SYR002015JUL2021           1.0
 UP           BOUND           z19WRIC18012843CLT192715JUL202119WCLT22301962PIT235415JUL2021           1.0
 UP           BOUND           z19WRIC19421260CLT211015JUL202119WCLT07052013SAT090016JUL2021           1.0
 UP           BOUND           z19WRIC19421260CLT211015JUL202119WCLT07161376EWR091116JUL2021           1.0
 UP           BOUND           z19WRIC19421260CLT211015JUL202119WCLT22140606STL231115JUL2021           1.0
 UP           BOUND           z19WRIC19421260CLT211015JUL202119WCLT22291976SYR002015JUL2021           1.0
 UP           BOUND           z19WRIC19421260CLT211015JUL202119WCLT22301962PIT235415JUL2021           1.0
 UP           BOUND           z19WSTL05300858CLT082616JUL2021_TERM           1.0
 UP           BOUND           z19WSYR06220530CLT082616JUL2021_TERM           1.0
 UP           BOUND           z19WUVF15270823CLT201415JUL202119WCLT07052013SAT090016JUL2021           1.0
 UP           BOUND           z19WUVF15270823CLT201415JUL202119WCLT07161376EWR091116JUL2021           1.0
 UP           BOUND           z19WUVF15270823CLT201415JUL202119WCLT22140606STL231115JUL2021           1.0
 UP           BOUND           z19WUVF15270823CLT201415JUL202119WCLT22291976SYR002015JUL2021           1.0
 UP           BOUND           z19WUVF15270823CLT201415JUL202119WCLT22301962PIT235415JUL2021           1.0
ENDATA
